letting n_nurses=25
letting n_days=7
letting n_shift_types=4
letting max_covers=12
letting t_covers=35
letting covers=[1,0,0,0,2,12,0,0,0,0,0,0,0,0,0,0,1,8,0,0,0,0,0,0,2,9,0,0]
letting prefes=[3,3,1,1,1,1,1,1,1,4,1,1,1,1,1,1,1,1,1,1,1,1,1,1,3,3,1,1,3,3,3,1,3,1,3,1,2,1,1,1,3,1,3,1,3,1,3,1,3,1,3,1,3,3,3,1,3,3,3,1,3,1,3,1,1,1,1,1,3,1,3,1,3,1,3,1,3,1,3,1,3,3,3,1,1,3,3,1,3,1,3,1,1,4,1,1,3,1,3,1,3,1,3,1,3,1,3,1,1,3,3,1,3,3,3,1,3,1,3,1,1,1,1,1,3,1,3,1,3,1,3,1,3,1,3,1,3,3,3,1,3,3,3,1,3,1,3,1,1,1,3,1,3,1,3,1,3,1,3,1,3,1,3,1,3,3,3,1,3,3,3,1,3,2,3,2,1,1,1,1,3,2,3,2,3,2,3,2,3,2,3,2,3,3,3,1,3,3,3,3,1,1,1,1,1,1,1,3,1,1,1,1,1,1,1,1,1,1,1,1,3,3,3,3,1,1,1,1,3,1,3,1,1,1,1,1,3,1,3,1,3,1,3,1,3,1,3,1,1,1,1,1,3,3,3,3,3,1,3,1,2,1,1,3,3,1,3,1,3,1,3,1,3,1,3,1,3,3,3,3,3,3,3,3,3,1,3,1,1,1,1,3,3,1,3,1,3,1,3,1,3,1,3,1,3,3,3,3,3,3,1,1,3,1,3,1,1,4,1,1,3,1,3,1,3,1,3,1,3,1,3,1,3,3,1,1,1,3,1,1,3,2,3,2,1,4,3,1,3,2,3,2,3,2,3,2,3,2,3,2,1,3,1,1,3,3,3,1,1,1,1,1,1,1,1,1,1,1,1,1,1,1,1,1,1,1,1,1,3,3,3,1,3,1,3,1,1,2,1,2,1,1,1,1,1,2,1,2,1,2,1,2,1,2,1,2,3,1,3,1,1,3,3,1,3,2,3,2,2,1,1,1,3,2,3,2,3,2,3,2,3,2,3,2,1,3,3,1,3,3,3,3,3,1,3,1,1,1,1,3,3,1,3,1,3,1,3,1,3,1,3,1,3,3,3,3,3,1,3,1,1,1,1,1,1,1,1,1,1,1,1,1,1,1,1,1,1,1,1,1,3,1,3,1,3,3,3,1,3,1,3,1,1,1,3,1,3,1,3,1,3,1,3,1,3,1,3,1,3,3,3,1,3,1,3,1,3,1,3,1,2,1,2,1,3,1,3,1,3,1,3,1,3,1,3,1,3,1,3,1,1,1,3,1,3,2,3,2,1,1,1,1,3,2,3,2,3,2,3,2,3,2,3,2,1,1,3,1,3,3,1,1,3,1,3,1,2,1,1,1,3,1,3,1,3,1,3,1,3,1,3,1,3,3,1,1,3,3,3,1,3,1,3,1,1,4,1,1,3,1,3,1,3,1,3,1,3,1,3,1,3,3,3,1,3,3,3,1,3,1,3,1,1,1,3,1,3,1,3,1,3,1,3,1,3,1,3,1,3,3,3,1,3,3,3,3,3,1,3,1,1,1,1,3,3,1,3,1,3,1,3,1,3,1,3,1,3,3,3,3]
letting ub =  211
